
Gurobi 9.0.0 (mac64, gurobi_cl) logging started Thu Jan 16 22:29:01 2020

Using license file /Users/philip/gurobi.lic
Set parameter LogFile to value gurobi.log

Gurobi 9.0.0 (mac64, Python) logging started Thu Jan 16 22:29:21 2020

Using license file /Users/philip/gurobi.lic
Set parameter LogFile to value gurobi.log

Gurobi 9.0.0 (mac64, gurobi_cl) logging started Thu Jan 16 22:30:22 2020

Using license file /Users/philip/gurobi.lic
Set parameter LogFile to value gurobi.log
